20
587 233 220
74 60 32
100 50 43
95 74 42
95 70 30
45 37 24
67 60 25
55 51 35
76 71 61
119 88 51
98 81 26
86 69 61
117 54 30
96 40 24
54 52 41
89 61 41
82 81 71
97 53 49
74 72 35
83 77 47
80 48 45
thpack7_97